
%FILE DATA:	Soccer Computational Problem for MiniZinc Models	%
%AUTHOR:	Jack Wall	%
%CONTACT:  	116397063@umail.ucc.ie			%
%LAST UPDATE:	02/24/2020, 18:51:12						%
%DESCRIPTION: 	45 games played with 27 games left				%


n=9; %number of teams

%Games to play
games=[|7,8|7,2|8,7|3,8|7,5|8,9|4,7|3,7|2,5|7,6|2,3|8,4|2,8|3,5|5,6|8,2|1,9|8,5|1,6|2,1|9,6|7,3|5,7|6,7|6,1|2,9|4,2|];

%Initial points
iPoints=[12,15,21,18,10,10,10,11,14];

%POSITION CONSTRAINTS
% [|teamID, operator, position|...]
% operators index:
%  1 for =  operator
%  2 for >  operator
%  3 for >= operator
%  4 for <  operator
%  5 for <= operator
positionConstraints=[|2,1,1|3,5,2|];